4091909970661579476506,6,1,2,08,4,1,2,014,3,1,2,011,15,1,2,011,15,1,2,015,9,1,2,01,8,1,2,013,8,1,2,010,5,1,2,01,11,1,2,05,14,1,2,013,8,1,2,012,9,1,2,010,5,1,2,02,12,1,2,08,3,1,2,08,5,1,2,06,8,1,2,05,11,1,2,04,1,1,2,013,6,1,2,05,11,1,2,03,2,1,2,09,7,1,2,09,3,1,2,015,13,1,2,02,15,1,2,05,5,1,2,03,12,1,2,014,2,1,2,02,9,1,2,04,4,1,2,03,7,1,2,08,4,1,2,06,15,1,2,06,11,1,2,012,5,1,2,07,8,1,2,03,6,1,2,05,15,1,2,04,7,1,2,07,7,1,2,06,8,1,2,07,12,1,2,03,4,1,2,05,9,1,2,014,15,1,2,02,10,1,2,03,6,1,2,09,7,1,2,0